55478
51 13 644
13 41 686
41 32 362
32 8 678
8 24 881
24 35 296
35 5 323
5 37 467
37 20 714
20 50 763
50 38 1180
38 44 690
44 19 1282
19 48 897
48 17 415
17 29 1002
29 16 1147
16 39 451
39 46 214
46 36 402
36 15 679
15 25 1148
25 31 299
31 27 4460
27 1 4123
1 33 7621
33 42 4807
42 11 1343
11 45 436
45 52 722
52 2 598
2 14 433
14 9 471
9 10 803
10 22 117
22 21 726
21 23 176
23 53 388
53 34 396
34 12 1214
12 18 768
18 4 606
4 30 380
30 47 944
47 54 491
54 26 967
26 49 560
49 55 711
55 28 487
28 6 404
6 3 385
3 43 1096
43 40 1279
40 7 1176
7 51 770
